100
1 0
13 0
23 1
6 3
27 1
36 4
31 3
43 4
10 0
13 1
14 3
22 3
3 2
10 3
29 4
20 0
19 4
12 4
33 4
29 3
41 0
11 0
7 3
1 4
4 2
2 4
19 2
9 3
32 0
2 2
15 0
29 0
16 4
36 2
28 1
23 4
34 0
27 3
41 1
30 4
7 0
24 1
18 0
21 4
6 0
3 1
27 4
25 4
7 4
38 0
24 0
12 0
11 4
42 4
20 4
13 3
37 3
21 0
28 0
5 2
36 3
6 4
24 4
18 4
25 1
2 0
14 4
0 0
28 3
37 0
25 0
32 4
39 0
3 0
38 1
31 4
4 4
4 0
1 1
40 4
21 1
6 1
5 0
15 1
29 2
11 1
11 2
37 4
28 2
1 3
15 4
23 0
28 4
19 0
34 4
23 3
36 1
43 0
25 3
42 0

